* Source:     Pyomo MPS Writer
* Format:     Free MPS
*
NAME unknown
OBJSENSE
 MIN
ROWS
 N  x19
 E  c_e_x20_
 E  c_e_x21_
 E  c_e_x22_
 E  c_e_x23_
 E  c_e_x24_
 E  c_e_x25_
 E  c_e_x26_
COLUMNS
     x1 x19 1
     x2 x19 1
     x2 c_e_x20_ 1
     x3 x19 1
     x3 c_e_x20_ 1
     x3 c_e_x21_ 1
     x4 x19 1
     x4 c_e_x20_ 1
     x4 c_e_x21_ 1
     x4 c_e_x25_ 1
     x5 x19 1
     x5 c_e_x20_ 1
     x5 c_e_x24_ 1
     x6 x19 1
     x6 c_e_x20_ 1
     x6 c_e_x25_ 1
     x7 x19 1
     x7 c_e_x21_ 1
     x8 x19 1
     x8 c_e_x21_ 1
     x8 c_e_x22_ 1
     x9 x19 1
     x9 c_e_x21_ 1
     x9 c_e_x25_ 1
     x10 x19 1
     x10 c_e_x22_ 1
     x11 x19 1
     x11 c_e_x22_ 1
     x11 c_e_x23_ 1
     x12 x19 1
     x12 c_e_x23_ 1
     x13 x19 1
     x13 c_e_x23_ 1
     x13 c_e_x24_ 1
     x14 x19 1
     x14 c_e_x23_ 1
     x14 c_e_x26_ 1
     x15 x19 1
     x15 c_e_x24_ 1
     x16 x19 1
     x16 c_e_x25_ 1
     x17 x19 1
     x17 c_e_x25_ 1
     x17 c_e_x26_ 1
     x18 x19 1
     x18 c_e_x26_ 1
RHS
     RHS c_e_x20_ 1
     RHS c_e_x21_ 1
     RHS c_e_x22_ 1
     RHS c_e_x23_ 1
     RHS c_e_x24_ 1
     RHS c_e_x25_ 1
     RHS c_e_x26_ 1
BOUNDS
 LO BOUND x1 0
 LO BOUND x2 0
 LO BOUND x3 0
 LO BOUND x4 0
 LO BOUND x5 0
 LO BOUND x6 0
 LO BOUND x7 0
 LO BOUND x8 0
 LO BOUND x9 0
 LO BOUND x10 0
 LO BOUND x11 0
 LO BOUND x12 0
 LO BOUND x13 0
 LO BOUND x14 0
 LO BOUND x15 0
 LO BOUND x16 0
 LO BOUND x17 0
 LO BOUND x18 0
ENDATA
